objective value:                                    0
t_slack#15#7                                        1 	(obj:0)
t_slack#0#14                                        1 	(obj:0)
t_slack#0#5                                         1 	(obj:0)
t_slack#0#16                                        1 	(obj:0)
t_slack#0#10                                        1 	(obj:0)
t_slack#0#7                                         1 	(obj:0)
t_slack#0#6                                         1 	(obj:0)
t_slack#0#2                                         1 	(obj:0)
t_slack#0#17                                        1 	(obj:0)
t_slack#0#9                                         1 	(obj:0)
t_slack#1#14                                        1 	(obj:0)
t_slack#1#0                                         1 	(obj:0)
t_slack#1#5                                         1 	(obj:0)
t_slack#1#11                                        1 	(obj:0)
t_slack#1#12                                        1 	(obj:0)
t_slack#1#17                                        1 	(obj:0)
t_slack#18#0                                        1 	(obj:0)
t_slack#18#19                                       1 	(obj:0)
t_slack#18#12                                       1 	(obj:0)
t_slack#18#10                                       1 	(obj:0)
t_slack#14#5                                        1 	(obj:0)
t_slack#14#16                                       1 	(obj:0)
t_slack#14#10                                       1 	(obj:0)
t_slack#14#7                                        1 	(obj:0)
t_slack#14#6                                        1 	(obj:0)
t_slack#14#17                                       1 	(obj:0)
t_slack#14#9                                        1 	(obj:0)
t_slack#11#16                                       1 	(obj:0)
t_slack#11#15                                       1 	(obj:0)
t_slack#11#7                                        1 	(obj:0)
t_slack#11#13                                       1 	(obj:0)
t_slack#11#17                                       1 	(obj:0)
t_slack#11#3                                        1 	(obj:0)
t_slack#12#14                                       1 	(obj:0)
t_slack#12#11                                       1 	(obj:0)
t_slack#12#18                                       1 	(obj:0)
t_slack#12#8                                        1 	(obj:0)
t_slack#12#2                                        1 	(obj:0)
t_slack#12#13                                       1 	(obj:0)
t_slack#12#17                                       1 	(obj:0)
t_slack#5#11                                        1 	(obj:0)
t_slack#5#19                                        1 	(obj:0)
t_slack#5#10                                        1 	(obj:0)
t_slack#5#8                                         1 	(obj:0)
t_slack#5#2                                         1 	(obj:0)
t_slack#5#9                                         1 	(obj:0)
t_slack#5#4                                         1 	(obj:0)
t_slack#17#16                                       1 	(obj:0)
t_slack#17#19                                       1 	(obj:0)
t_slack#17#12                                       1 	(obj:0)
t_slack#17#18                                       1 	(obj:0)
t_slack#17#8                                        1 	(obj:0)
t_slack#17#1                                        1 	(obj:0)
t_slack#4#0                                         1 	(obj:0)
t_slack#4#5                                         1 	(obj:0)
t_slack#4#10                                        1 	(obj:0)
t_slack#4#15                                        1 	(obj:0)
t_slack#4#13                                        1 	(obj:0)
t_slack#4#3                                         1 	(obj:0)
t_slack#13#11                                       1 	(obj:0)
t_slack#13#10                                       1 	(obj:0)
t_slack#13#15                                       1 	(obj:0)
t_slack#13#7                                        1 	(obj:0)
t_slack#13#6                                        1 	(obj:0)
t_slack#8#14                                        1 	(obj:0)
t_slack#8#5                                         1 	(obj:0)
t_slack#8#16                                        1 	(obj:0)
t_slack#8#11                                        1 	(obj:0)
t_slack#8#6                                         1 	(obj:0)
t_slack#8#13                                        1 	(obj:0)
t_slack#8#3                                         1 	(obj:0)
t_slack#9#0                                         1 	(obj:0)
t_slack#9#16                                        1 	(obj:0)
t_slack#9#19                                        1 	(obj:0)
t_slack#9#12                                        1 	(obj:0)
t_slack#9#10                                        1 	(obj:0)
t_slack#9#15                                        1 	(obj:0)
t_slack#9#13                                        1 	(obj:0)
t_slack#3#19                                        1 	(obj:0)
t_slack#3#12                                        1 	(obj:0)
t_slack#3#15                                        1 	(obj:0)
t_slack#3#6                                         1 	(obj:0)
t_slack#3#2                                         1 	(obj:0)
t_slack#3#17                                        1 	(obj:0)
t_slack#3#1                                         1 	(obj:0)
t_slack#10#19                                       1 	(obj:0)
t_slack#10#15                                       1 	(obj:0)
t_slack#10#3                                        1 	(obj:0)
t_slack#16#11                                       1 	(obj:0)
t_slack#16#15                                       1 	(obj:0)
t_slack#16#13                                       1 	(obj:0)
t_slack#16#9                                        1 	(obj:0)
t_slack#16#4                                        1 	(obj:0)
t_slack#7#11                                        1 	(obj:0)
t_slack#7#19                                        1 	(obj:0)
t_slack#7#8                                         1 	(obj:0)
t_slack#7#13                                        1 	(obj:0)
t_slack#7#9                                         1 	(obj:0)
t_slack#19#12                                       1 	(obj:0)
t_slack#19#6                                        1 	(obj:0)
t_slack#19#8                                        1 	(obj:0)
t_slack#19#2                                        1 	(obj:0)
t_slack#19#13                                       1 	(obj:0)
t_slack#19#3                                        1 	(obj:0)
t_slack#19#4                                        1 	(obj:0)
t_slack#6#0                                         1 	(obj:0)
t_slack#6#5                                         1 	(obj:0)
t_slack#6#19                                        1 	(obj:0)
t_slack#6#12                                        1 	(obj:0)
t_slack#6#7                                         1 	(obj:0)
t_slack#6#13                                        1 	(obj:0)
t_slack#2#10                                        1 	(obj:0)
t_slack#2#3                                         1 	(obj:0)
t_slack#15#14                                       1 	(obj:0)
t_slack#15#11                                       1 	(obj:0)
t_slack#15#12                                       1 	(obj:0)
t_slack#15#9                                        1 	(obj:0)
